\ This file has been generated by DOcplex
\ ENCODING=ISO-8859-1
\Problem name: random_problem.lp

Minimize
 obj: 3692 x0 + 1846 x1 + 923 x2 - 2508 x3 - 1254 x4 - 627 x5 + 3284 x6
      + 1642 x7 + 821 x8 + 232 x9 + 116 x10 + 58 x11 + 992 x12 + 496 x13
      + 248 x14 - 80 x15 - 40 x16 - 20 x17 + 4 x18 + 2 x19 + x20 + [ 11808 x0^2
      + 11808 x0*x1 + 5904 x0*x2 + 15936 x0*x3 + 7968 x0*x4 + 3984 x0*x5
      - 3264 x0*x6 - 1632 x0*x7 - 816 x0*x8 - 192 x0*x9 - 96 x0*x10 - 48 x0*x11
      + 5440 x0*x12 + 2720 x0*x13 + 1360 x0*x14 + 320 x0*x15 + 160 x0*x16
      + 80 x0*x17 + 3712 x0*x18 + 1856 x0*x19 + 928 x0*x20 + 2952 x1^2
      + 2952 x1*x2 + 7968 x1*x3 + 3984 x1*x4 + 1992 x1*x5 - 1632 x1*x6
      - 816 x1*x7 - 408 x1*x8 - 96 x1*x9 - 48 x1*x10 - 24 x1*x11 + 2720 x1*x12
      + 1360 x1*x13 + 680 x1*x14 + 160 x1*x15 + 80 x1*x16 + 40 x1*x17
      + 1856 x1*x18 + 928 x1*x19 + 464 x1*x20 + 738 x2^2 + 3984 x2*x3
      + 1992 x2*x4 + 996 x2*x5 - 816 x2*x6 - 408 x2*x7 - 204 x2*x8 - 48 x2*x9
      - 24 x2*x10 - 12 x2*x11 + 1360 x2*x12 + 680 x2*x13 + 340 x2*x14
      + 80 x2*x15 + 40 x2*x16 + 20 x2*x17 + 928 x2*x18 + 464 x2*x19 + 232 x2*x20
      + 30528 x3^2 + 30528 x3*x4 + 15264 x3*x5 + 13440 x3*x6 + 6720 x3*x7
      + 3360 x3*x8 - 6976 x3*x9 - 3488 x3*x10 - 1744 x3*x11 + 3072 x3*x12
      + 1536 x3*x13 + 768 x3*x14 + 1216 x3*x15 + 608 x3*x16 + 304 x3*x17
      + 10112 x3*x18 + 5056 x3*x19 + 2528 x3*x20 + 7632 x4^2 + 7632 x4*x5
      + 6720 x4*x6 + 3360 x4*x7 + 1680 x4*x8 - 3488 x4*x9 - 1744 x4*x10
      - 872 x4*x11 + 1536 x4*x12 + 768 x4*x13 + 384 x4*x14 + 608 x4*x15
      + 304 x4*x16 + 152 x4*x17 + 5056 x4*x18 + 2528 x4*x19 + 1264 x4*x20
      + 1908 x5^2 + 3360 x5*x6 + 1680 x5*x7 + 840 x5*x8 - 1744 x5*x9
      - 872 x5*x10 - 436 x5*x11 + 768 x5*x12 + 384 x5*x13 + 192 x5*x14
      + 304 x5*x15 + 152 x5*x16 + 76 x5*x17 + 2528 x5*x18 + 1264 x5*x19
      + 632 x5*x20 + 15840 x6^2 + 15840 x6*x7 + 7920 x6*x8 - 640 x6*x9
      - 320 x6*x10 - 160 x6*x11 + 2368 x6*x12 + 1184 x6*x13 + 592 x6*x14
      + 768 x6*x15 + 384 x6*x16 + 192 x6*x17 + 7040 x6*x18 + 3520 x6*x19
      + 1760 x6*x20 + 3960 x7^2 + 3960 x7*x8 - 320 x7*x9 - 160 x7*x10
      - 80 x7*x11 + 1184 x7*x12 + 592 x7*x13 + 296 x7*x14 + 384 x7*x15
      + 192 x7*x16 + 96 x7*x17 + 3520 x7*x18 + 1760 x7*x19 + 880 x7*x20
      + 990 x8^2 - 160 x8*x9 - 80 x8*x10 - 40 x8*x11 + 592 x8*x12 + 296 x8*x13
      + 148 x8*x14 + 192 x8*x15 + 96 x8*x16 + 48 x8*x17 + 1760 x8*x18
      + 880 x8*x19 + 440 x8*x20 + 1568 x9^2 + 1568 x9*x10 + 784 x9*x11
      + 1216 x9*x12 + 608 x9*x13 + 304 x9*x14 - 128 x9*x15 - 64 x9*x16
      - 32 x9*x17 + 768 x9*x18 + 384 x9*x19 + 192 x9*x20 + 392 x10^2
      + 392 x10*x11 + 608 x10*x12 + 304 x10*x13 + 152 x10*x14 - 64 x10*x15
      - 32 x10*x16 - 16 x10*x17 + 384 x10*x18 + 192 x10*x19 + 96 x10*x20
      + 98 x11^2 + 304 x11*x12 + 152 x11*x13 + 76 x11*x14 - 32 x11*x15
      - 16 x11*x16 - 8 x11*x17 + 192 x11*x18 + 96 x11*x19 + 48 x11*x20
      + 7392 x12^2 + 7392 x12*x13 + 3696 x12*x14 + 256 x12*x15 + 128 x12*x16
      + 64 x12*x17 + 896 x12*x18 + 448 x12*x19 + 224 x12*x20 + 1848 x13^2
      + 1848 x13*x14 + 128 x13*x15 + 64 x13*x16 + 32 x13*x17 + 448 x13*x18
      + 224 x13*x19 + 112 x13*x20 + 462 x14^2 + 64 x14*x15 + 32 x14*x16
      + 16 x14*x17 + 224 x14*x18 + 112 x14*x19 + 56 x14*x20 + 64 x15^2
      + 64 x15*x16 + 32 x15*x17 + 384 x15*x18 + 192 x15*x19 + 96 x15*x20
      + 16 x16^2 + 16 x16*x17 + 192 x16*x18 + 96 x16*x19 + 48 x16*x20 + 4 x17^2
      + 96 x17*x18 + 48 x17*x19 + 24 x17*x20 + 3360 x18^2 + 3360 x18*x19
      + 1680 x18*x20 + 840 x19^2 + 840 x19*x20 + 210 x20^2 ]/2
Subject To
 c0: 4 x0 + 2 x1 + x2 + 4 x3 + 2 x4 + x5 + 4 x6 + 2 x7 + x8 + 4 x9 + 2 x10 + x11
     + 4 x12 + 2 x13 + x14 + 4 x15 + 2 x16 + x17 + 4 x18 + 2 x19 + x20 = 7

Bounds
 0 <= x0 <= 1
 0 <= x1 <= 1
 0 <= x2 <= 1
 0 <= x3 <= 1
 0 <= x4 <= 1
 0 <= x5 <= 1
 0 <= x6 <= 1
 0 <= x7 <= 1
 0 <= x8 <= 1
 0 <= x9 <= 1
 0 <= x10 <= 1
 0 <= x11 <= 1
 0 <= x12 <= 1
 0 <= x13 <= 1
 0 <= x14 <= 1
 0 <= x15 <= 1
 0 <= x16 <= 1
 0 <= x17 <= 1
 0 <= x18 <= 1
 0 <= x19 <= 1
 0 <= x20 <= 1

Binaries
 x0 x1 x2 x3 x4 x5 x6 x7 x8 x9 x10 x11 x12 x13 x14 x15 x16 x17 x18 x19 x20
End
